SECTION Graph 
Nodes 557
Edges 1080
E 2 14 133
E 2 195 2
E 2 507 36
E 3 4 1
E 4 5 14
E 5 6 1
E 6 196 30
E 7 8 1
E 7 496 7
E 7 499 1
E 8 9 14
E 8 500 1
E 9 10 1
E 9 505 1
E 10 506 1
E 11 12 1
E 11 492 34
E 12 13 14
E 12 494 34
E 13 14 1
E 13 501 34
E 14 502 34
E 15 16 1
E 15 483 7
E 15 485 3
E 15 487 1
E 16 17 14
E 16 486 3
E 16 488 1
E 17 18 1
E 17 491 3
E 17 495 1
E 18 493 3
E 18 496 1
E 18 499 7
E 19 20 1
E 19 23 23
E 20 21 14
E 20 24 23
E 21 22 1
E 21 25 23
E 22 26 23
E 23 24 1
E 23 472 21
E 24 25 14
E 24 474 21
E 25 26 1
E 25 482 21
E 26 484 21
E 27 28 1
E 27 34 53
E 27 459 1
E 28 29 14
E 28 460 1
E 29 30 1
E 29 465 1
E 30 466 1
E 30 472 99
E 31 32 1
E 31 442 7
E 31 447 1
E 32 33 14
E 32 448 1
E 33 34 1
E 33 453 1
E 34 454 1
E 35 36 1
E 35 409 19
E 35 422 7
E 35 433 4
E 36 37 14
E 36 410 19
E 36 434 4
E 37 38 1
E 37 424 19
E 37 444 4
E 38 426 19
E 38 446 4
E 39 40 1
E 39 376 22
E 39 409 4
E 40 41 14
E 40 410 4
E 41 42 1
E 41 424 4
E 42 426 4
E 43 44 1
E 43 400 7
E 43 404 4
E 43 413 7
E 44 45 14
E 44 406 4
E 44 416 7
E 45 46 1
E 45 420 4
E 45 431 7
E 46 422 4
E 46 432 7
E 46 433 7
E 47 48 1
E 47 348 30
E 47 374 4
E 47 404 19
E 48 49 14
E 48 376 4
E 48 406 19
E 49 50 1
E 49 420 19
E 50 409 7
E 50 422 19
E 51 52 1
E 51 395 7
E 51 402 3
E 52 53 14
E 52 405 3
E 53 54 1
E 53 418 3
E 54 421 3
E 55 56 1
E 55 389 8
E 55 394 4
E 56 57 14
E 56 398 4
E 57 58 1
E 57 411 4
E 58 414 4
E 59 60 1
E 59 333 19
E 59 344 7
E 59 353 4
E 60 61 14
E 60 334 19
E 60 354 4
E 61 62 1
E 61 360 1
E 61 366 4
E 62 362 1
E 62 368 4
E 62 373 7
E 63 64 1
E 63 349 20
E 63 357 7
E 63 369 3
E 64 65 14
E 64 350 20
E 64 371 3
E 65 66 1
E 65 363 16
E 65 387 3
E 66 364 16
E 66 389 3
E 66 394 7
E 67 68 1
E 67 336 8
E 67 337 7
E 67 349 3
E 68 69 14
E 68 338 8
E 68 350 3
E 69 70 1
E 69 351 8
E 69 359 3
E 70 352 8
E 70 361 3
E 70 365 7
E 71 72 1
E 71 304 7
E 71 311 6
E 72 73 14
E 72 312 6
E 73 74 1
E 73 322 6
E 74 324 6
E 74 374 55
E 75 76 1
E 75 341 7
E 75 345 3
E 76 77 14
E 76 347 3
E 77 78 1
E 77 355 3
E 78 357 3
E 78 369 7
E 79 80 1
E 79 318 7
E 79 321 3
E 79 345 20
E 80 81 14
E 80 323 3
E 80 347 20
E 81 82 1
E 81 335 3
E 81 355 20
E 82 337 3
E 82 349 7
E 82 357 20
E 83 84 1
E 83 294 53
E 83 305 3
E 83 313 12
E 84 85 14
E 84 306 3
E 84 315 12
E 85 86 1
E 85 314 3
E 85 319 1
E 86 316 3
E 86 320 1
E 86 326 7
E 87 88 1
E 87 91 23
E 88 89 14
E 88 92 23
E 89 90 1
E 89 93 23
E 90 94 23
E 91 92 1
E 91 325 51
E 92 93 14
E 92 327 51
E 93 94 1
E 93 339 51
E 94 341 51
E 95 96 1
E 95 99 29
E 95 118 9
E 95 287 79
E 96 97 14
E 96 100 29
E 96 289 79
E 97 98 1
E 97 101 29
E 97 291 79
E 98 102 29
E 98 293 79
E 99 100 1
E 99 259 50
E 99 274 7
E 100 101 14
E 100 260 50
E 101 102 1
E 101 105 53
E 102 106 53
E 103 104 1
E 103 246 17
E 103 254 7
E 103 259 3
E 104 105 14
E 104 248 17
E 104 260 3
E 105 106 1
E 105 257 17
E 106 258 17
E 107 108 1
E 107 238 10
E 107 246 6
E 108 109 14
E 108 248 6
E 109 110 1
E 109 257 6
E 110 258 6
E 111 112 1
E 111 288 12
E 112 113 14
E 112 290 12
E 113 114 1
E 113 292 12
E 114 294 12
E 114 295 7
E 115 116 1
E 115 265 31
E 115 276 7
E 115 277 75
E 116 117 14
E 116 266 31
E 116 278 75
E 117 118 1
E 117 273 31
E 117 281 75
E 118 274 31
E 118 282 75
E 119 120 1
E 119 225 7
E 119 229 3
E 119 241 17
E 120 121 14
E 120 230 3
E 120 242 17
E 121 122 1
E 121 237 3
E 121 253 17
E 122 238 3
E 122 246 7
E 122 254 17
E 123 124 1
E 123 127 23
E 124 125 14
E 124 128 23
E 125 126 1
E 125 129 23
E 126 130 23
E 126 285 7
E 127 128 1
E 127 131 72
E 127 270 77
E 128 129 14
E 128 132 72
E 129 130 1
E 129 133 72
E 130 134 72
E 130 277 7
E 131 132 1
E 131 268 7
E 131 271 3
E 132 133 14
E 132 272 3
E 133 134 1
E 133 275 3
E 134 276 3
E 135 136 1
E 135 220 7
E 135 226 3
E 136 137 14
E 136 228 3
E 137 138 1
E 137 234 3
E 138 236 3
E 138 243 7
E 139 140 1
E 139 214 7
E 139 217 3
E 140 141 14
E 140 218 3
E 141 142 1
E 141 222 3
E 142 225 3
E 142 229 7
E 143 144 1
E 143 221 62
E 143 262 7
E 143 263 4
E 144 145 14
E 144 223 62
E 144 264 4
E 145 146 1
E 145 231 62
E 145 267 4
E 146 232 62
E 146 268 4
E 146 271 8
E 147 148 1
E 147 207 19
E 147 212 7
E 147 215 4
E 148 149 14
E 148 208 19
E 148 216 4
E 149 150 1
E 149 213 19
E 149 219 4
E 150 214 19
E 150 220 4
E 150 224 7
E 151 152 1
E 151 202 8
E 151 207 4
E 152 153 14
E 152 208 4
E 153 154 1
E 153 213 4
E 154 214 4
E 155 156 1
E 155 159 43
E 155 239 4
E 156 157 14
E 156 160 43
E 156 240 4
E 157 158 1
E 157 161 43
E 157 250 4
E 158 162 43
E 158 252 4
E 159 160 1
E 159 205 22
E 159 210 7
E 160 161 14
E 160 206 22
E 161 162 1
E 161 211 22
E 162 212 22
E 162 221 7
E 163 164 1
E 163 167 21
E 164 165 14
E 164 168 21
E 165 166 1
E 165 245 6
E 166 247 6
E 166 263 32
E 166 269 45
E 167 168 1
E 167 203 47
E 168 169 14
E 168 204 47
E 169 170 1
E 169 209 47
E 169 245 15
E 170 210 47
E 170 239 7
E 170 247 15
E 171 172 1
E 171 175 23
E 171 182 7
E 172 173 14
E 172 176 23
E 173 174 1
E 173 177 23
E 174 178 23
E 174 203 374
E 174 205 375
E 175 176 1
E 176 177 14
E 177 178 1
E 178 200 375
E 179 180 1
E 179 186 7
E 180 181 14
E 181 182 1
E 183 184 1
E 183 190 8
E 184 185 14
E 185 186 1
E 187 188 1
E 187 199 7
E 188 189 14
E 189 190 1
E 190 203 442
E 191 192 1
E 191 196 5
E 192 193 14
E 192 197 5
E 193 194 1
E 193 198 5
E 194 199 5
E 194 203 460
E 196 197 1
E 197 198 14
E 198 199 1
E 200 201 1
E 200 205 23
E 201 202 14
E 201 206 23
E 202 211 23
E 203 204 1
E 204 209 14
E 205 206 1
E 206 211 14
E 207 208 1
E 208 213 14
E 209 210 1
E 211 212 1
E 213 214 1
E 215 216 1
E 215 221 18
E 216 219 14
E 216 223 18
E 217 218 1
E 217 224 16
E 218 222 14
E 218 227 16
E 219 220 1
E 219 231 18
E 220 232 18
E 221 223 1
E 222 225 1
E 222 233 16
E 223 231 14
E 224 226 1
E 224 227 1
E 225 235 16
E 226 228 1
E 227 228 1
E 227 233 14
E 228 234 14
E 229 230 1
E 230 237 14
E 231 232 1
E 233 234 1
E 233 235 1
E 234 236 1
E 235 236 1
E 236 241 7
E 237 238 1
E 239 240 1
E 239 249 15
E 240 250 14
E 240 251 15
E 241 242 1
E 241 243 3
E 242 244 3
E 242 253 14
E 243 244 1
E 243 265 50
E 244 255 14
E 244 266 50
E 245 247 1
E 246 248 1
E 247 249 7
E 248 257 14
E 249 251 1
E 250 252 1
E 250 261 15
E 251 261 14
E 252 262 15
E 253 254 1
E 253 255 3
E 254 256 3
E 255 256 1
E 255 273 50
E 256 259 7
E 256 274 50
E 257 258 1
E 259 260 1
E 261 262 1
E 263 264 1
E 264 267 14
E 265 266 1
E 266 273 14
E 267 268 1
E 267 269 2
E 268 270 2
E 269 270 1
E 271 272 1
E 272 275 14
E 273 274 1
E 275 276 1
E 277 278 1
E 277 279 2
E 278 280 2
E 278 281 14
E 279 280 1
E 279 285 21
E 280 283 14
E 280 286 21
E 281 282 1
E 281 283 2
E 282 284 2
E 283 284 1
E 283 292 24
E 284 287 7
E 284 294 24
E 285 286 1
E 285 288 3
E 286 290 3
E 286 305 68
E 287 289 1
E 288 290 1
E 289 291 14
E 290 292 14
E 291 293 1
E 292 294 1
E 293 297 30
E 295 296 1
E 296 299 14
E 297 298 1
E 297 305 21
E 298 303 14
E 298 306 21
E 299 300 1
E 300 301 7
E 301 302 1
E 301 307 11
E 302 308 11
E 302 309 14
E 303 304 1
E 303 314 21
E 304 316 21
E 305 306 1
E 306 314 14
E 307 308 1
E 307 325 23
E 308 317 14
E 308 327 23
E 309 310 1
E 309 317 11
E 310 313 7
E 310 318 11
E 311 312 1
E 311 316 22
E 311 326 18
E 312 322 14
E 312 329 18
E 313 315 1
E 313 321 8
E 314 316 1
E 315 323 8
E 315 331 14
E 317 318 1
E 317 339 23
E 318 341 23
E 319 320 1
E 319 331 11
E 320 328 7
E 320 332 11
E 321 323 1
E 322 324 1
E 322 340 18
E 323 335 14
E 324 333 7
E 324 343 18
E 325 327 1
E 326 328 1
E 326 329 1
E 327 339 14
E 328 330 1
E 328 336 11
E 329 330 1
E 329 340 14
E 330 338 11
E 330 342 14
E 331 332 1
E 331 335 8
E 332 336 7
E 332 337 8
E 333 334 1
E 334 346 14
E 335 337 1
E 336 338 1
E 338 351 14
E 339 341 1
E 340 342 1
E 340 343 1
E 342 344 1
E 342 351 11
E 343 344 1
E 343 360 22
E 344 352 11
E 345 347 1
E 346 348 1
E 346 360 18
E 347 355 14
E 348 362 18
E 349 350 1
E 350 359 14
E 351 352 1
E 352 356 7
E 353 354 1
E 353 356 7
E 354 358 7
E 354 366 14
E 355 357 1
E 356 358 1
E 356 365 8
E 358 367 8
E 358 378 14
E 359 361 1
E 359 363 4
E 360 362 1
E 361 364 4
E 361 370 7
E 363 364 1
E 364 377 7
E 365 367 1
E 365 370 3
E 366 368 1
E 366 378 7
E 367 372 3
E 367 383 14
E 368 380 7
E 368 381 7
E 369 371 1
E 370 372 1
E 370 377 4
E 371 387 14
E 372 379 4
E 372 388 14
E 373 375 1
E 373 381 4
E 374 376 1
E 375 382 4
E 375 391 14
E 377 379 1
E 377 394 16
E 378 380 1
E 378 383 8
E 379 393 14
E 379 398 16
E 380 384 7
E 380 385 8
E 381 382 1
E 381 384 7
E 382 386 7
E 382 397 14
E 383 385 1
E 383 388 3
E 384 386 1
E 384 396 8
E 385 390 3
E 385 396 7
E 386 399 8
E 386 407 14
E 387 389 1
E 388 390 1
E 388 393 4
E 390 395 4
E 390 401 7
E 391 392 1
E 391 397 4
E 392 400 4
E 392 404 7
E 393 395 1
E 393 411 16
E 394 398 1
E 395 414 16
E 396 399 1
E 396 401 3
E 397 400 1
E 397 407 7
E 398 411 14
E 399 403 3
E 399 412 14
E 400 408 7
E 401 402 1
E 401 403 1
E 402 405 1
E 403 405 1
E 403 417 14
E 404 406 1
E 405 418 14
E 406 420 14
E 407 408 1
E 407 412 8
E 408 413 7
E 408 415 8
E 409 410 1
E 410 424 14
E 411 414 1
E 412 415 1
E 412 417 3
E 413 416 1
E 413 423 8
E 415 419 3
E 415 423 7
E 416 425 8
E 416 431 14
E 417 418 1
E 417 419 1
E 418 421 1
E 419 421 1
E 419 427 7
E 420 422 1
E 421 428 7
E 423 425 1
E 423 427 3
E 424 426 1
E 425 429 3
E 425 435 14
E 427 428 1
E 427 429 1
E 428 430 1
E 429 430 1
E 429 439 14
E 430 440 14
E 431 432 1
E 431 435 8
E 432 436 7
E 432 437 8
E 433 434 1
E 433 436 7
E 434 438 7
E 434 444 14
E 435 437 1
E 435 439 3
E 436 438 1
E 436 443 8
E 437 441 3
E 437 443 7
E 438 445 8
E 438 449 14
E 439 440 1
E 439 441 1
E 440 442 1
E 441 442 1
E 441 447 7
E 443 445 1
E 443 447 3
E 444 446 1
E 444 449 7
E 445 448 3
E 445 451 14
E 446 450 7
E 447 448 1
E 448 453 14
E 449 450 1
E 449 451 8
E 450 452 8
E 450 455 53
E 451 452 1
E 451 453 3
E 452 454 3
E 452 457 53
E 453 454 1
E 454 459 53
E 455 456 1
E 455 457 8
E 456 458 8
E 456 461 14
E 457 458 1
E 457 459 3
E 458 460 3
E 458 463 14
E 459 460 1
E 460 465 14
E 461 462 1
E 461 463 8
E 462 464 8
E 462 467 99
E 463 464 1
E 463 465 3
E 464 466 3
E 464 469 99
E 465 466 1
E 466 471 99
E 467 468 1
E 467 469 8
E 468 470 8
E 468 475 14
E 469 470 1
E 469 471 3
E 470 473 3
E 470 477 14
E 471 472 1
E 471 473 1
E 472 474 1
E 473 474 1
E 473 481 14
E 474 482 14
E 475 476 1
E 475 477 8
E 476 478 7
E 476 479 8
E 477 479 1
E 477 481 3
E 478 480 1
E 478 485 8
E 479 483 3
E 479 485 7
E 480 486 8
E 480 489 14
E 481 482 1
E 481 483 1
E 482 484 1
E 483 484 1
E 484 487 7
E 485 486 1
E 486 491 14
E 487 488 1
E 488 495 14
E 489 490 1
E 489 491 8
E 490 492 7
E 490 493 8
E 491 493 1
E 492 494 1
E 492 497 8
E 493 497 7
E 494 498 8
E 494 501 14
E 495 496 1
E 497 498 1
E 497 499 3
E 498 500 3
E 498 503 14
E 499 500 1
E 500 505 14
E 501 502 1
E 501 503 8
E 502 504 8
E 502 507 131
E 503 504 1
E 503 505 3
E 504 506 3
E 504 508 131
E 505 506 1
E 507 508 8
E 1 509 100000
E 2 509 100000
E 3 510 100000
E 4 510 100000
E 5 510 100000
E 6 510 100000
E 7 511 100000
E 8 511 100000
E 9 511 100000
E 10 511 100000
E 11 512 100000
E 12 512 100000
E 13 512 100000
E 14 512 100000
E 15 513 100000
E 16 513 100000
E 17 513 100000
E 18 513 100000
E 19 514 100000
E 20 514 100000
E 21 514 100000
E 22 514 100000
E 23 515 100000
E 24 515 100000
E 25 515 100000
E 26 515 100000
E 27 516 100000
E 28 516 100000
E 29 516 100000
E 30 516 100000
E 31 517 100000
E 32 517 100000
E 33 517 100000
E 34 517 100000
E 35 518 100000
E 36 518 100000
E 37 518 100000
E 38 518 100000
E 39 519 100000
E 40 519 100000
E 41 519 100000
E 42 519 100000
E 43 520 100000
E 44 520 100000
E 45 520 100000
E 46 520 100000
E 47 521 100000
E 48 521 100000
E 49 521 100000
E 50 521 100000
E 51 522 100000
E 52 522 100000
E 53 522 100000
E 54 522 100000
E 55 523 100000
E 56 523 100000
E 57 523 100000
E 58 523 100000
E 59 524 100000
E 60 524 100000
E 61 524 100000
E 62 524 100000
E 63 525 100000
E 64 525 100000
E 65 525 100000
E 66 525 100000
E 67 526 100000
E 68 526 100000
E 69 526 100000
E 70 526 100000
E 71 527 100000
E 72 527 100000
E 73 527 100000
E 74 527 100000
E 75 528 100000
E 76 528 100000
E 77 528 100000
E 78 528 100000
E 79 529 100000
E 80 529 100000
E 81 529 100000
E 82 529 100000
E 83 530 100000
E 84 530 100000
E 85 530 100000
E 86 530 100000
E 87 531 100000
E 88 531 100000
E 89 531 100000
E 90 531 100000
E 91 532 100000
E 92 532 100000
E 93 532 100000
E 94 532 100000
E 95 533 100000
E 96 533 100000
E 97 533 100000
E 98 533 100000
E 99 534 100000
E 100 534 100000
E 101 534 100000
E 102 534 100000
E 103 535 100000
E 104 535 100000
E 105 535 100000
E 106 535 100000
E 107 536 100000
E 108 536 100000
E 109 536 100000
E 110 536 100000
E 111 537 100000
E 112 537 100000
E 113 537 100000
E 114 537 100000
E 115 538 100000
E 116 538 100000
E 117 538 100000
E 118 538 100000
E 119 539 100000
E 120 539 100000
E 121 539 100000
E 122 539 100000
E 123 540 100000
E 124 540 100000
E 125 540 100000
E 126 540 100000
E 127 541 100000
E 128 541 100000
E 129 541 100000
E 130 541 100000
E 131 542 100000
E 132 542 100000
E 133 542 100000
E 134 542 100000
E 135 543 100000
E 136 543 100000
E 137 543 100000
E 138 543 100000
E 139 544 100000
E 140 544 100000
E 141 544 100000
E 142 544 100000
E 143 545 100000
E 144 545 100000
E 145 545 100000
E 146 545 100000
E 147 546 100000
E 148 546 100000
E 149 546 100000
E 150 546 100000
E 151 547 100000
E 152 547 100000
E 153 547 100000
E 154 547 100000
E 155 548 100000
E 156 548 100000
E 157 548 100000
E 158 548 100000
E 159 549 100000
E 160 549 100000
E 161 549 100000
E 162 549 100000
E 163 550 100000
E 164 550 100000
E 165 550 100000
E 166 550 100000
E 167 551 100000
E 168 551 100000
E 169 551 100000
E 170 551 100000
E 171 552 100000
E 172 552 100000
E 173 552 100000
E 174 552 100000
E 175 553 100000
E 176 553 100000
E 177 553 100000
E 178 553 100000
E 179 554 100000
E 180 554 100000
E 181 554 100000
E 182 554 100000
E 183 555 100000
E 184 555 100000
E 185 555 100000
E 186 555 100000
E 187 556 100000
E 188 556 100000
E 189 556 100000
E 190 556 100000
E 191 557 100000
E 192 557 100000
E 193 557 100000
E 194 557 100000
E 195 509 100000
END 

SECTION Terminals 
Terminals 50
TP 509 534
TP 510 535
TP 511 536
TP 512 537
TP 513 538
TP 514 539
TP 515 540
TP 516 541
TP 517 542
TP 518 543
TP 519 544
TP 520 545
TP 521 546
TP 522 547
TP 523 548
TP 524 549
TP 525 550
TP 526 551
TP 527 552
TP 528 553
TP 529 554
TP 530 555
TP 531 556
TP 532 557
TP 533 30
END 
